
Welcome to IBM(R) ILOG(R) CPLEX(R) Interactive Optimizer 22.1.1.0
  with Simplex, Mixed Integer & Barrier Optimizers
5725-A06 5725-A29 5724-Y48 5724-Y49 5724-Y54 5724-Y55 5655-Y21
Copyright IBM Corp. 1988, 2022.  All Rights Reserved.

Type 'help' for a list of available commands.
Type 'help' followed by a command name for more
information on commands.

CPLEX> Selected objective sense:  MINIMIZE
Selected objective  name:  00000000
Selected RHS        name:  RHS1
Selected bound      name:  BOUND
Problem 'ee.mps' read.
Read time = 0.03 sec. (3.17 ticks)
CPLEX> New value for time limit in seconds: 7200
CPLEX> New value for parallel optimization mode: -1
CPLEX> New value for default parallel thread count: 40
CPLEX> New value for mixed integer optimality gap tolerance: 1e-13
CPLEX> Version identifier: 22.1.1.0 | 2022-11-28 | 9160aff4d
CPXPARAM_Threads                                 40
CPXPARAM_Parallel                                -1
CPXPARAM_TimeLimit                               7200
CPXPARAM_MIP_Tolerances_MIPGap                   1e-13
Found incumbent of value 0.000000 after 0.00 sec. (0.31 ticks)
Tried aggregator 2 times.
MIP Presolve eliminated 182 rows and 2745 columns.
MIP Presolve modified 6090 coefficients.
Aggregator did 713 substitutions.
Reduced MIP has 3636 rows, 7840 columns, and 28952 nonzeros.
Reduced MIP has 7840 binaries, 0 generals, 0 SOSs, and 0 indicators.
Presolve time = 0.08 sec. (69.14 ticks)
Probing time = 0.03 sec. (5.87 ticks)
Tried aggregator 1 time.
Detecting symmetries...
Reduced MIP has 3636 rows, 7840 columns, and 28952 nonzeros.
Reduced MIP has 7840 binaries, 0 generals, 0 SOSs, and 0 indicators.
Presolve time = 0.03 sec. (22.10 ticks)
Probing time = 0.02 sec. (5.67 ticks)
Clique table members: 18787.
MIP emphasis: balance optimality and feasibility.
MIP search method: dynamic search.
Parallel mode: opportunistic, using up to 40 threads.
Root relaxation solution time = 0.16 sec. (131.31 ticks)

        Nodes                                         Cuts/
   Node  Left     Objective  IInf  Best Integer    Best Bound    ItCnt     Gap

*     0+    0                            0.0000  -1.54000e+13              --- 
*     0+    0                      -5.79000e+12  -1.54000e+13           165.98%
*     0+    0                      -6.00000e+12  -1.54000e+13           156.67%
*     0+    0                      -7.20000e+12  -1.54000e+13           113.89%
      0     0  -1.53900e+13   130  -7.20000e+12  -1.53900e+13     2874  113.75%
*     0+    0                      -1.53900e+13  -1.53900e+13             0.00%
      0     0  -1.53900e+13   181  -1.53900e+13      Cuts: 91     3631    0.00%
      0     0  -1.53900e+13   188  -1.53900e+13      Cuts: 82     4311    0.00%
*     0+    0                      -1.53900e+13  -1.53900e+13             0.00%
      0    22        cutoff        -1.53900e+13  -1.53900e+13    48219    0.00%
Elapsed time = 3.24 sec. (1415.11 ticks, tree = 0.02 MB, solutions = 15)
    106    39  -1.53900e+13   285  -1.53900e+13  -1.53900e+13    69568    0.00%
    403    57  -1.53900e+13   169  -1.53900e+13  -1.53900e+13    74691    0.00%
    820    69  -1.53900e+13   165  -1.53900e+13  -1.53900e+13    79851    0.00%
   1299    73  -1.53900e+13   202  -1.53900e+13  -1.53900e+13    84124    0.00%
   1756    81  -1.53900e+13   248  -1.53900e+13  -1.53900e+13    99101    0.00%
   1998   167  -1.53900e+13   127  -1.53900e+13  -1.53900e+13   199853    0.00%
   2195   102  -1.53900e+13   182  -1.53900e+13  -1.53900e+13   132882    0.00%
   2356   171        cutoff        -1.53900e+13  -1.53900e+13   199532    0.00%
   2506   223  -1.53900e+13   207  -1.53900e+13  -1.53900e+13   236450    0.00%
   3313   322  -1.53900e+13   165  -1.53900e+13  -1.53900e+13   423787    0.00%
Elapsed time = 9.29 sec. (4531.35 ticks, tree = 0.75 MB, solutions = 15)
   4176   330  -1.53900e+13   154  -1.53900e+13  -1.53900e+13   477408    0.00%
   4992   413  -1.53900e+13   360  -1.53900e+13  -1.53900e+13   641827    0.00%
   5615   209        cutoff        -1.53900e+13  -1.53900e+13   919561    0.00%
   6559    53  -1.53900e+13    41  -1.53900e+13  -1.53900e+13  1320490    0.00%
   7890    58  -1.53900e+13    58  -1.53900e+13  -1.53900e+13  1322578    0.00%
   8672    64  -1.53900e+13   122  -1.53900e+13  -1.53900e+13  1325836    0.00%
   9446    55        cutoff        -1.53900e+13  -1.53900e+13  1375657    0.00%
  10175   221  -1.53900e+13    41  -1.53900e+13  -1.53900e+13  1845758    0.00%
  10698    98  -1.53900e+13    22  -1.53900e+13  -1.53900e+13  2025369    0.00%
  11091   108        cutoff        -1.53900e+13  -1.53900e+13  1993219    0.00%
Elapsed time = 21.95 sec. (14084.87 ticks, tree = 0.25 MB, solutions = 15)
  11359   190  -1.53900e+13   186  -1.53900e+13  -1.53900e+13  1925977    0.00%

Performing restart 1

Repeating presolve.
Tried aggregator 3 times.
MIP Presolve eliminated 29 rows and 61 columns.
MIP Presolve modified 1865 coefficients.
Aggregator did 27 substitutions.
Reduced MIP has 3506 rows, 7752 columns, and 28062 nonzeros.
Reduced MIP has 7752 binaries, 0 generals, 0 SOSs, and 0 indicators.
Presolve time = 0.04 sec. (36.43 ticks)
Tried aggregator 2 times.
MIP Presolve eliminated 32 rows and 141 columns.
MIP Presolve modified 28 coefficients.
Aggregator did 49 substitutions.
Reduced MIP has 3425 rows, 7544 columns, and 27324 nonzeros.
Reduced MIP has 7544 binaries, 0 generals, 0 SOSs, and 0 indicators.
Presolve time = 0.05 sec. (46.46 ticks)
Tried aggregator 2 times.
MIP Presolve eliminated 4 rows and 14 columns.
Aggregator did 2 substitutions.
Reduced MIP has 3419 rows, 7527 columns, and 27263 nonzeros.
Reduced MIP has 7527 binaries, 0 generals, 0 SOSs, and 0 indicators.
Presolve time = 0.04 sec. (42.85 ticks)
Represolve time = 0.32 sec. (229.27 ticks)
  11375     0  -1.53900e+13   260  -1.53900e+13      Cuts: 39  2220946    0.00%
  11375     0  -1.53900e+13   248  -1.53900e+13      Cuts: 45  2221602    0.00%
  11375     0  -1.53900e+13   338  -1.53900e+13      Cuts: 37  2222359    0.00%
  11375     0  -1.53900e+13   357  -1.53900e+13      Cuts: 50  2223570    0.00%
  11375     0  -1.53900e+13   114  -1.53900e+13      Cuts: 33  2223711    0.00%
  11375     0  -1.53900e+13   199  -1.53900e+13      Cuts: 37  2223889    0.00%
  11375     0  -1.53900e+13   118  -1.53900e+13      Cuts: 27  2224125    0.00%
  11375     0  -1.53900e+13   211  -1.53900e+13      Cuts: 10  2224258    0.00%
  11375    10        cutoff        -1.53900e+13  -1.53900e+13  2233041    0.00%
  11634     6  -1.53900e+13   188  -1.53900e+13  -1.53900e+13  2232748    0.00%

GUB cover cuts applied:  7
Clique cuts applied:  8
Cover cuts applied:  257
Flow cuts applied:  2
Mixed integer rounding cuts applied:  20
Zero-half cuts applied:  43
Lift and project cuts applied:  3
Gomory fractional cuts applied:  18

Root node processing (before b&c):
  Real time             =    1.49 sec. (1396.29 ticks)
Parallel b&c, 40 threads:
  Real time             =   29.88 sec. (20035.12 ticks)
  Sync time (average)   =    9.45 sec.
  Wait time (average)   =    0.12 sec.
                          ------------
Total (root+branch&cut) =   31.37 sec. (21431.41 ticks)

Solution pool: 15 solutions saved.

MIP - Integer optimal solution:  Objective = -1.5389998389e+13
Solution time =   31.49 sec.  Iterations = 2239242  Nodes = 11669
Deterministic time = 21431.44 ticks  (680.49 ticks/sec)

CPLEX> Solution 'p16' written to file 'ee.sol'.
CPLEX> 